;; unsat

(declare-const x1 sl.list.loc)
(declare-const x3 sl.list.loc)
(declare-const x4 sl.list.loc)
(declare-const x5 sl.list.loc)
(declare-const x6 sl.list.loc)
(declare-const x7 sl.list.loc)
(declare-const x8 sl.list.loc)
(declare-const x9 sl.list.loc)
(declare-const x10 sl.list.loc)
(declare-const x11 sl.list.loc)
(declare-const x12 sl.list.loc)
(declare-const x13 sl.list.loc)

(assert (sl.sepcon (sl.sepcon (sl.sepcon (sl.sepcon (sl.sepcon (sl.sepcon (sl.sepcon (sl.sepcon (sl.sepcon (sl.sepcon (sl.sepcon (sl.list.eq sl.list.null sl.list.null)
 (sl.list.neq x6 x7)
)
 (sl.list.neq x3 x8)
)
 (sl.list.neq x3 x7)
)
 (sl.list.neq x3 x12)
)
 (sl.list.neq x7 x8)
)
 (sl.list.neq x7 x11)
)
 (sl.list.neq x7 x13)
)
 (sl.list.neq x9 x13)
)
 (sl.list.neq x8 x12)
)
 (sl.list.neq x10 x12)
)
 (sl.sepcon (sl.sepcon (sl.sepcon (sl.sepcon (sl.sepcon (sl.sepcon (sl.sepcon (sl.sepcon (sl.sepcon (sl.sepcon (sl.sepcon (sl.sepcon (sl.sepcon (sl.sepcon (sl.sepcon (sl.sepcon (sl.list.seg x13 x3)
 (sl.list.seg x13 x4)
)
 (sl.list.seg x13 x1)
)
 (sl.list.seg x10 x12)
)
 (sl.list.seg x10 x4)
)
 (sl.list.seg x10 x1)
)
 (sl.list.seg x10 x6)
)
 (sl.list.seg x4 x1)
)
 (sl.list.seg x12 x1)
)
 (sl.list.seg x9 x13)
)
 (sl.list.seg x9 x10)
)
 (sl.list.seg x7 x12)
)
 (sl.list.seg x7 x9)
)
 (sl.list.seg x3 x6)
)
 (sl.list.seg x11 x8)
)
 (sl.list.seg x6 x5)
)
 (sl.list.seg x6 x9)
)
)
)

